13375,15191,11448,18209,11113,7366,4766,22125,448,25905,25874,11782,2496,2410,16766,20503,20634,16413,5732,6079,20946,22342,2171,21449,16134,20615,2939,11396,8230,26010,6827,19211,5759,12740,18030,18666,12751,22279,16268,13122,20481,18309,8627,9813,14542,990,13375